Route #1: 31 2 30 39 19 36
Route #2: 29 20 11 27 12 34 16 9
Route #3: 1 8 28 6 25 33 38 22 43
Route #4: 4 42 15 37 26 24 17 21
Route #5: 23 35 18 40 32 41 13 7 44 10 3
Route #6: 5 14
cost 1508.4447230573826
